c Generated map
c Size: 10 * 10, weights in range: 1 to 10, walls: False, with ratio 0.0
c dim 7 of 7
c
p sp 100 180
c graph contains 100 nodes and 180 arcs
c
a 1 11 10
a 11 1 10
a 1 2 6
a 2 1 6
a 2 12 2
a 12 2 2
a 2 3 4
a 3 2 4
a 3 13 7
a 13 3 7
a 3 4 7
a 4 3 7
a 4 14 7
a 14 4 7
a 4 5 3
a 5 4 3
a 5 15 3
a 15 5 3
a 5 6 10
a 6 5 10
a 6 16 1
a 16 6 1
a 6 7 10
a 7 6 10
a 7 17 4
a 17 7 4
a 7 8 6
a 8 7 6
a 8 18 10
a 18 8 10
a 8 9 5
a 9 8 5
a 9 19 5
a 19 9 5
a 9 10 8
a 10 9 8
a 10 20 3
a 20 10 3
a 11 21 10
a 21 11 10
a 11 12 9
a 12 11 9
a 12 22 9
a 22 12 9
a 12 13 3
a 13 12 3
a 13 23 9
a 23 13 9
a 13 14 7
a 14 13 7
a 14 24 10
a 24 14 10
a 14 15 9
a 15 14 9
a 15 25 9
a 25 15 9
a 15 16 1
a 16 15 1
a 16 26 3
a 26 16 3
a 16 17 8
a 17 16 8
a 17 27 6
a 27 17 6
a 17 18 7
a 18 17 7
a 18 28 3
a 28 18 3
a 18 19 7
a 19 18 7
a 19 29 2
a 29 19 2
a 19 20 9
a 20 19 9
a 20 30 4
a 30 20 4
a 21 31 2
a 31 21 2
a 21 22 3
a 22 21 3
a 22 32 1
a 32 22 1
a 22 23 4
a 23 22 4
a 23 33 2
a 33 23 2
a 23 24 9
a 24 23 9
a 24 34 1
a 34 24 1
a 24 25 4
a 25 24 4
a 25 35 5
a 35 25 5
a 25 26 9
a 26 25 9
a 26 36 4
a 36 26 4
a 26 27 1
a 27 26 1
a 27 37 2
a 37 27 2
a 27 28 9
a 28 27 9
a 28 38 1
a 38 28 1
a 28 29 2
a 29 28 2
a 29 39 3
a 39 29 3
a 29 30 8
a 30 29 8
a 30 40 9
a 40 30 9
a 31 41 8
a 41 31 8
a 31 32 5
a 32 31 5
a 32 42 2
a 42 32 2
a 32 33 1
a 33 32 1
a 33 43 10
a 43 33 10
a 33 34 4
a 34 33 4
a 34 44 4
a 44 34 4
a 34 35 1
a 35 34 1
a 35 45 4
a 45 35 4
a 35 36 10
a 36 35 10
a 36 46 4
a 46 36 4
a 36 37 7
a 37 36 7
a 37 47 1
a 47 37 1
a 37 38 4
a 38 37 4
a 38 48 4
a 48 38 4
a 38 39 1
a 39 38 1
a 39 49 9
a 49 39 9
a 39 40 4
a 40 39 4
a 40 50 5
a 50 40 5
a 41 51 3
a 51 41 3
a 41 42 1
a 42 41 1
a 42 52 8
a 52 42 8
a 42 43 8
a 43 42 8
a 43 53 2
a 53 43 2
a 43 44 4
a 44 43 4
a 44 54 9
a 54 44 9
a 44 45 8
a 45 44 8
a 45 55 9
a 55 45 9
a 45 46 7
a 46 45 7
a 46 56 10
a 56 46 10
a 46 47 5
a 47 46 5
a 47 57 10
a 57 47 10
a 47 48 4
a 48 47 4
a 48 58 7
a 58 48 7
a 48 49 8
a 49 48 8
a 49 59 5
a 59 49 5
a 49 50 4
a 50 49 4
a 50 60 10
a 60 50 10
a 51 61 7
a 61 51 7
a 51 52 7
a 52 51 7
a 52 62 6
a 62 52 6
a 52 53 6
a 53 52 6
a 53 63 3
a 63 53 3
a 53 54 5
a 54 53 5
a 54 64 9
a 64 54 9
a 54 55 9
a 55 54 9
a 55 65 8
a 65 55 8
a 55 56 2
a 56 55 2
a 56 66 6
a 66 56 6
a 56 57 3
a 57 56 3
a 57 67 3
a 67 57 3
a 57 58 4
a 58 57 4
a 58 68 1
a 68 58 1
a 58 59 4
a 59 58 4
a 59 69 8
a 69 59 8
a 59 60 7
a 60 59 7
a 60 70 7
a 70 60 7
a 61 71 9
a 71 61 9
a 61 62 1
a 62 61 1
a 62 72 7
a 72 62 7
a 62 63 3
a 63 62 3
a 63 73 7
a 73 63 7
a 63 64 2
a 64 63 2
a 64 74 7
a 74 64 7
a 64 65 8
a 65 64 8
a 65 75 9
a 75 65 9
a 65 66 7
a 66 65 7
a 66 76 8
a 76 66 8
a 66 67 8
a 67 66 8
a 67 77 4
a 77 67 4
a 67 68 6
a 68 67 6
a 68 78 2
a 78 68 2
a 68 69 4
a 69 68 4
a 69 79 6
a 79 69 6
a 69 70 2
a 70 69 2
a 70 80 7
a 80 70 7
a 71 81 9
a 81 71 9
a 71 72 9
a 72 71 9
a 72 82 6
a 82 72 6
a 72 73 1
a 73 72 1
a 73 83 8
a 83 73 8
a 73 74 7
a 74 73 7
a 74 84 2
a 84 74 2
a 74 75 3
a 75 74 3
a 75 85 10
a 85 75 10
a 75 76 9
a 76 75 9
a 76 86 7
a 86 76 7
a 76 77 3
a 77 76 3
a 77 87 2
a 87 77 2
a 77 78 3
a 78 77 3
a 78 88 3
a 88 78 3
a 78 79 8
a 79 78 8
a 79 89 8
a 89 79 8
a 79 80 4
a 80 79 4
a 80 90 3
a 90 80 3
a 81 91 5
a 91 81 5
a 81 82 5
a 82 81 5
a 82 92 8
a 92 82 8
a 82 83 7
a 83 82 7
a 83 93 8
a 93 83 8
a 83 84 8
a 84 83 8
a 84 94 4
a 94 84 4
a 84 85 4
a 85 84 4
a 85 95 2
a 95 85 2
a 85 86 7
a 86 85 7
a 86 96 9
a 96 86 9
a 86 87 4
a 87 86 4
a 87 97 6
a 97 87 6
a 87 88 7
a 88 87 7
a 88 98 9
a 98 88 9
a 88 89 10
a 89 88 10
a 89 99 2
a 99 89 2
a 89 90 1
a 90 89 1
a 90 100 1
a 100 90 1
a 91 92 3
a 92 91 3
a 92 93 10
a 93 92 10
a 93 94 6
a 94 93 6
a 94 95 10
a 95 94 10
a 95 96 2
a 96 95 2
a 96 97 9
a 97 96 9
a 97 98 3
a 98 97 3
a 98 99 6
a 99 98 6
a 99 100 7
a 100 99 7
